CPXPARAM_TimeLimit                               3600
CPXPARAM_Read_DataCheck                          1
Tried aggregator 1 time.
MIP Presolve eliminated 2493 rows and 0 columns.
MIP Presolve modified 4159 coefficients.
Reduced MIP has 169387 rows, 54451 columns, and 612056 nonzeros.
Reduced MIP has 2850 binaries, 0 generals, 0 SOSs, and 0 indicators.
Presolve time = 0.15 sec. (225.66 ticks)
Found incumbent of value 12220.000000 after 0.29 sec. (399.51 ticks)
Probing fixed 0 vars, tightened 2 bounds.
Probing time = 0.04 sec. (31.17 ticks)
Tried aggregator 1 time.
Reduced MIP has 169387 rows, 54451 columns, and 612056 nonzeros.
Reduced MIP has 2850 binaries, 0 generals, 0 SOSs, and 0 indicators.
Presolve time = 0.30 sec. (304.93 ticks)
Probing time = 0.04 sec. (26.08 ticks)
MIP emphasis: balance optimality and feasibility.
MIP search method: dynamic search.
Parallel mode: deterministic, using up to 8 threads.
Root relaxation solution time = 143.31 sec. (32458.35 ticks)

        Nodes                                         Cuts/
   Node  Left     Objective  IInf  Best Integer    Best Bound    ItCnt     Gap

*     0+    0                        12220.0000      956.0000            92.18%
      0     0     1027.5540  2437    12220.0000     1027.5540    70254   91.59%
      0     0     1033.3459  2429    12220.0000    Cuts: 1382   186138   91.54%
      0     0     1035.9746  2513    12220.0000    Cuts: 2359   366568   91.52%
      0     0     1038.5598  2552    12220.0000    Cuts: 2255   447936   91.50%
      0     0     1042.5711  2580    12220.0000    Cuts: 2021   528661   91.47%

Implied bound cuts applied:  428
Flow cuts applied:  592
Mixed integer rounding cuts applied:  1564
Lift and project cuts applied:  10
Gomory fractional cuts applied:  69

Root node processing (before b&c):
  Real time             = 3600.06 sec. (2272637.99 ticks)
Parallel b&c, 8 threads:
  Real time             =    0.00 sec. (0.00 ticks)
  Sync time (average)   =    0.00 sec.
  Wait time (average)   =    0.00 sec.
                          ------------
Total (root+branch&cut) = 3600.06 sec. (2272637.99 ticks)
